c 
c MolecularSimulation 1.0.2
c Simulation written: Tue Aug 14 15:19:25 2012
c Test: Ogihara-Ray
c Input: ./data/testCNF/SWEEP_R11_K3_N20_M204_S000.cnf
c 
s UNSATISFIABLE
v 0
c algorithmType:  Ogihara-Ray
c algorithmTime:  0.027949
c solutionMemory: 0
c mixCount:       480
c extractCount:   612
c appendCount:    36
c splitCount:     18
c spliceCount:    0
c purifyCount:    222
c numVar:         20
c numClause:      204
c 
